\* MultiCast *\
Minimize
obj_func: 2 X_(0,_1) + 5 X_(0,_4) + 5 X_(0,_5) + 2 X_(1,_0) + 2 X_(1,_2)
 + 4 X_(1,_3) + 3 X_(1,_7) + 2 X_(2,_1) + 5 X_(2,_4) + 2 X_(2,_5) + 3 X_(2,_7)
 + 3 X_(2,_8) + 4 X_(3,_1) + 5 X_(3,_6) + 2 X_(3,_8) + 5 X_(4,_0) + 5 X_(4,_2)
 + 2 X_(4,_6) + 2 X_(4,_7) + 5 X_(5,_0) + 2 X_(5,_2) + 5 X_(6,_3) + 2 X_(6,_4)
 + 3 X_(7,_1) + 3 X_(7,_2) + 2 X_(7,_4) + 3 X_(7,_8) + 3 X_(8,_2) + 2 X_(8,_3)
 + 3 X_(8,_7)
Subject To
_C1: F_(0,_1) - 3 X_(0,_1) <= 0
_C10: F_(2,_5) - 3 X_(2,_5) <= 0
_C11: F_(2,_7) - 3 X_(2,_7) <= 0
_C12: F_(2,_8) - 3 X_(2,_8) <= 0
_C13: F_(3,_1) - 3 X_(3,_1) <= 0
_C14: F_(3,_6) - 3 X_(3,_6) <= 0
_C15: F_(3,_8) - 3 X_(3,_8) <= 0
_C16: F_(4,_0) - 3 X_(4,_0) <= 0
_C17: F_(4,_2) - 3 X_(4,_2) <= 0
_C18: F_(4,_6) - 3 X_(4,_6) <= 0
_C19: F_(4,_7) - 3 X_(4,_7) <= 0
_C2: F_(0,_4) - 3 X_(0,_4) <= 0
_C20: F_(5,_0) - 3 X_(5,_0) <= 0
_C21: F_(5,_2) - 3 X_(5,_2) <= 0
_C22: F_(6,_3) - 3 X_(6,_3) <= 0
_C23: F_(6,_4) - 3 X_(6,_4) <= 0
_C24: F_(7,_1) - 3 X_(7,_1) <= 0
_C25: F_(7,_2) - 3 X_(7,_2) <= 0
_C26: F_(7,_4) - 3 X_(7,_4) <= 0
_C27: F_(7,_8) - 3 X_(7,_8) <= 0
_C28: F_(8,_2) - 3 X_(8,_2) <= 0
_C29: F_(8,_3) - 3 X_(8,_3) <= 0
_C3: F_(0,_5) - 3 X_(0,_5) <= 0
_C30: F_(8,_7) - 3 X_(8,_7) <= 0
_C4: F_(1,_0) - 3 X_(1,_0) <= 0
_C5: F_(1,_2) - 3 X_(1,_2) <= 0
_C6: F_(1,_3) - 3 X_(1,_3) <= 0
_C7: F_(1,_7) - 3 X_(1,_7) <= 0
_C8: F_(2,_1) - 3 X_(2,_1) <= 0
_C9: F_(2,_4) - 3 X_(2,_4) <= 0
flow_balance_for_node0: F_(0,_1) + F_(0,_4) + F_(0,_5) - F_(1,_0) - F_(4,_0)
 - F_(5,_0) = 0
flow_balance_for_node1: - F_(0,_1) + F_(1,_0) + F_(1,_2) + F_(1,_3) + F_(1,_7)
 - F_(2,_1) - F_(3,_1) - F_(7,_1) = 0
flow_balance_for_node2: - F_(1,_2) + F_(2,_1) + F_(2,_4) + F_(2,_5) + F_(2,_7)
 + F_(2,_8) - F_(4,_2) - F_(5,_2) - F_(7,_2) - F_(8,_2) = 0
flow_balance_for_node3: - F_(1,_3) + F_(3,_1) + F_(3,_6) + F_(3,_8) - F_(6,_3)
 - F_(8,_3) = 0
flow_balance_for_node7: - F_(1,_7) - F_(2,_7) - F_(4,_7) + F_(7,_1) + F_(7,_2)
 + F_(7,_4) + F_(7,_8) - F_(8,_7) = 0
input_flow_to_destination_4: F_(0,_4) + F_(2,_4) + F_(6,_4) + F_(7,_4) = 1
input_flow_to_destination_5: F_(0,_5) + F_(2,_5) = 1
input_flow_to_destination_6: F_(3,_6) + F_(4,_6) = 1
no_input_to_source: F_(2,_8) + F_(3,_8) + F_(7,_8) = 0
output_flow_from_source: F_(8,_2) + F_(8,_3) + F_(8,_7) = 3
Bounds
0 <= F_(0,_1) <= 3
0 <= F_(0,_4) <= 3
0 <= F_(0,_5) <= 3
0 <= F_(1,_0) <= 3
0 <= F_(1,_2) <= 3
0 <= F_(1,_3) <= 3
0 <= F_(1,_7) <= 3
0 <= F_(2,_1) <= 3
0 <= F_(2,_4) <= 3
0 <= F_(2,_5) <= 3
0 <= F_(2,_7) <= 3
0 <= F_(2,_8) <= 3
0 <= F_(3,_1) <= 3
0 <= F_(3,_6) <= 3
0 <= F_(3,_8) <= 3
0 <= F_(4,_0) <= 3
0 <= F_(4,_2) <= 3
0 <= F_(4,_6) <= 3
0 <= F_(4,_7) <= 3
0 <= F_(5,_0) <= 3
0 <= F_(5,_2) <= 3
0 <= F_(6,_3) <= 3
0 <= F_(6,_4) <= 3
0 <= F_(7,_1) <= 3
0 <= F_(7,_2) <= 3
0 <= F_(7,_4) <= 3
0 <= F_(7,_8) <= 3
0 <= F_(8,_2) <= 3
0 <= F_(8,_3) <= 3
0 <= F_(8,_7) <= 3
Generals
F_(0,_1)
F_(0,_4)
F_(0,_5)
F_(1,_0)
F_(1,_2)
F_(1,_3)
F_(1,_7)
F_(2,_1)
F_(2,_4)
F_(2,_5)
F_(2,_7)
F_(2,_8)
F_(3,_1)
F_(3,_6)
F_(3,_8)
F_(4,_0)
F_(4,_2)
F_(4,_6)
F_(4,_7)
F_(5,_0)
F_(5,_2)
F_(6,_3)
F_(6,_4)
F_(7,_1)
F_(7,_2)
F_(7,_4)
F_(7,_8)
F_(8,_2)
F_(8,_3)
F_(8,_7)
Binaries
X_(0,_1)
X_(0,_4)
X_(0,_5)
X_(1,_0)
X_(1,_2)
X_(1,_3)
X_(1,_7)
X_(2,_1)
X_(2,_4)
X_(2,_5)
X_(2,_7)
X_(2,_8)
X_(3,_1)
X_(3,_6)
X_(3,_8)
X_(4,_0)
X_(4,_2)
X_(4,_6)
X_(4,_7)
X_(5,_0)
X_(5,_2)
X_(6,_3)
X_(6,_4)
X_(7,_1)
X_(7,_2)
X_(7,_4)
X_(7,_8)
X_(8,_2)
X_(8,_3)
X_(8,_7)
End
